12
48
840
745
720
1046
783
1028
962
791
919
1044
981
763
91	86
322	269
981	1008
213	178
755	798
967	998
57	39
259	240
179	130
49	10
592	641
430	429
797	843
89	107
644	705
772	830
276	306
194	294
731	732
511	427
923	867
21	99
565	645
691	705
337	325
300	293
262	185
604	548
285	308
252	228
44	32
158	124
128	73
295	290
599	678
18	52
483	403
656	561
333	255
464	517
541	475
498	467
685	748
205	249
877	845
701	745
871	837
539	527
